p cnf 1860
-24 -584
-25 -587
-26 -590
-27 -593
-28 -596
-29 -599
-30 -602
-31 -605
-32 -608
-33 -611
-34 -614
-35 -617
-36 -620
-37 -623
-38 -626
-39 -629
-40 -632
-41 -635
-42 -638
-43 -641
-44 -644
-45 -647
-46 -650
-47 651
-48 652
-49 653
-50 654
-51 655
-52 656
-53 657
-54 658
-55 659
-56 660
-57 661
-58 662
-59 663
-60 664
-61 665
-62 666
-63 667
-64 668
-65 -25
-65 -26
25 26 65
-66 -27
-66 -28
27 28 66
-67 -29
-67 -30
29 30 67
-68 -31
-68 -32
31 32 68
-69 -33
-69 -34
33 34 69
-70 -35
-70 -36
35 36 70
-71 -37
-71 -38
37 38 71
-72 -39
-72 -40
39 40 72
-73 -41
-73 -42
41 42 73
-74 -43
-74 -44
43 44 74
-75 -45
-75 -46
45 46 75
-76 -47
-76 -48
47 48 76
-77 -49
-77 -50
49 50 77
-78 -51
-78 -52
51 52 78
-79 -53
-79 -54
53 54 79
-80 -55
-80 -56
55 56 80
-81 -57
-81 -58
57 58 81
-82 -59
-82 -60
59 60 82
-83 -61
-83 -62
61 62 83
-84 -63
-84 -64
63 64 84
-85 65
-85 66
-65 -66 85
-86 67
-86 68
-67 -68 86
-87 69
-87 70
-69 -70 87
-88 71
-88 72
-71 -72 88
-89 73
-89 74
-73 -74 89
-90 75
-90 76
-75 -76 90
-91 77
-91 78
-77 -78 91
-92 79
-92 80
-79 -80 92
-93 81
-93 82
-81 -82 93
-94 83
-94 84
-83 -84 94
-95 85
-95 86
-85 -86 95
-96 87
-96 88
-87 -88 96
-97 89
-97 90
-89 -90 97
-98 91
-98 92
-91 -92 98
-99 93
-99 94
-93 -94 99
-100 95
-100 96
-95 -96 100
-101 97
-101 98
-97 -98 101
-102 100
-102 101
-100 -101 102
-103 99
-103 102
-99 -102 103
-104 -24
-104 25
24 -25 104
-105 24
-105 -25
-24 25 105
-106 -104
-106 -105
104 105 106
-107 24
-107 25
-24 -25 107
-108 -24
-108 -106
24 106 108
-109 24
-109 106
-24 -106 109
-110 -108
-110 -109
108 109 110
-111 24
-111 -106
-24 106 111
-112 -107
-112 -111
107 111 112
-113 -25
-113 26
25 -26 113
-114 25
-114 -26
-25 26 114
-115 -113
-115 -114
113 114 115
-116 25
-116 26
-25 -26 116
-117 112
-117 -115
-112 115 117
-118 -112
-118 115
112 -115 118
-119 -117
-119 -118
117 118 119
-120 -112
-120 -115
112 115 120
-121 -116
-121 -120
116 120 121
-122 -26
-122 27
26 -27 122
-123 26
-123 -27
-26 27 123
-124 -122
-124 -123
122 123 124
-125 26
-125 27
-26 -27 125
-126 121
-126 -124
-121 124 126
-127 -121
-127 124
121 -124 127
-128 -126
-128 -127
126 127 128
-129 -121
-129 -124
121 124 129
-130 -125
-130 -129
125 129 130
-131 -27
-131 28
27 -28 131
-132 27
-132 -28
-27 28 132
-133 -131
-133 -132
131 132 133
-134 27
-134 28
-27 -28 134
-135 130
-135 -133
-130 133 135
-136 -130
-136 133
130 -133 136
-137 -135
-137 -136
135 136 137
-138 -130
-138 -133
130 133 138
-139 -134
-139 -138
134 138 139
-140 -28
-140 29
28 -29 140
-141 28
-141 -29
-28 29 141
-142 -140
-142 -141
140 141 142
-143 28
-143 29
-28 -29 143
-144 139
-144 -142
-139 142 144
-145 -139
-145 142
139 -142 145
-146 -144
-146 -145
144 145 146
-147 -139
-147 -142
139 142 147
-148 -143
-148 -147
143 147 148
-149 -29
-149 30
29 -30 149
-150 29
-150 -30
-29 30 150
-151 -149
-151 -150
149 150 151
-152 29
-152 30
-29 -30 152
-153 148
-153 -151
-148 151 153
-154 -148
-154 151
148 -151 154
-155 -153
-155 -154
153 154 155
-156 -148
-156 -151
148 151 156
-157 -152
-157 -156
152 156 157
-158 -30
-158 31
30 -31 158
-159 30
-159 -31
-30 31 159
-160 -158
-160 -159
158 159 160
-161 30
-161 31
-30 -31 161
-162 157
-162 -160
-157 160 162
-163 -157
-163 160
157 -160 163
-164 -162
-164 -163
162 163 164
-165 -157
-165 -160
157 160 165
-166 -161
-166 -165
161 165 166
-167 -31
-167 32
31 -32 167
-168 31
-168 -32
-31 32 168
-169 -167
-169 -168
167 168 169
-170 31
-170 32
-31 -32 170
-171 166
-171 -169
-166 169 171
-172 -166
-172 169
166 -169 172
-173 -171
-173 -172
171 172 173
-174 -166
-174 -169
166 169 174
-175 -170
-175 -174
170 174 175
-176 -32
-176 33
32 -33 176
-177 32
-177 -33
-32 33 177
-178 -176
-178 -177
176 177 178
-179 32
-179 33
-32 -33 179
-180 175
-180 -178
-175 178 180
-181 -175
-181 178
175 -178 181
-182 -180
-182 -181
180 181 182
-183 -175
-183 -178
175 178 183
-184 -179
-184 -183
179 183 184
-185 -33
-185 34
33 -34 185
-186 33
-186 -34
-33 34 186
-187 -185
-187 -186
185 186 187
-188 33
-188 34
-33 -34 188
-189 184
-189 -187
-184 187 189
-190 -184
-190 187
184 -187 190
-191 -189
-191 -190
189 190 191
-192 -184
-192 -187
184 187 192
-193 -188
-193 -192
188 192 193
-194 -34
-194 35
34 -35 194
-195 34
-195 -35
-34 35 195
-196 -194
-196 -195
194 195 196
-197 34
-197 35
-34 -35 197
-198 193
-198 -196
-193 196 198
-199 -193
-199 196
193 -196 199
-200 -198
-200 -199
198 199 200
-201 -193
-201 -196
193 196 201
-202 -197
-202 -201
197 201 202
-203 -35
-203 36
35 -36 203
-204 35
-204 -36
-35 36 204
-205 -203
-205 -204
203 204 205
-206 35
-206 36
-35 -36 206
-207 202
-207 -205
-202 205 207
-208 -202
-208 205
202 -205 208
-209 -207
-209 -208
207 208 209
-210 -202
-210 -205
202 205 210
-211 -206
-211 -210
206 210 211
-212 -36
-212 37
36 -37 212
-213 36
-213 -37
-36 37 213
-214 -212
-214 -213
212 213 214
-215 36
-215 37
-36 -37 215
-216 211
-216 -214
-211 214 216
-217 -211
-217 214
211 -214 217
-218 -216
-218 -217
216 217 218
-219 -211
-219 -214
211 214 219
-220 -215
-220 -219
215 219 220
-221 -37
-221 38
37 -38 221
-222 37
-222 -38
-37 38 222
-223 -221
-223 -222
221 222 223
-224 37
-224 38
-37 -38 224
-225 220
-225 -223
-220 223 225
-226 -220
-226 223
220 -223 226
-227 -225
-227 -226
225 226 227
-228 -220
-228 -223
220 223 228
-229 -224
-229 -228
224 228 229
-230 -38
-230 39
38 -39 230
-231 38
-231 -39
-38 39 231
-232 -230
-232 -231
230 231 232
-233 38
-233 39
-38 -39 233
-234 229
-234 -232
-229 232 234
-235 -229
-235 232
229 -232 235
-236 -234
-236 -235
234 235 236
-237 -229
-237 -232
229 232 237
-238 -233
-238 -237
233 237 238
-239 -39
-239 40
39 -40 239
-240 39
-240 -40
-39 40 240
-241 -239
-241 -240
239 240 241
-242 39
-242 40
-39 -40 242
-243 238
-243 -241
-238 241 243
-244 -238
-244 241
238 -241 244
-245 -243
-245 -244
243 244 245
-246 -238
-246 -241
238 241 246
-247 -242
-247 -246
242 246 247
-248 -40
-248 41
40 -41 248
-249 40
-249 -41
-40 41 249
-250 -248
-250 -249
248 249 250
-251 40
-251 41
-40 -41 251
-252 247
-252 -250
-247 250 252
-253 -247
-253 250
247 -250 253
-254 -252
-254 -253
252 253 254
-255 -247
-255 -250
247 250 255
-256 -251
-256 -255
251 255 256
-257 -41
-257 42
41 -42 257
-258 41
-258 -42
-41 42 258
-259 -257
-259 -258
257 258 259
-260 41
-260 42
-41 -42 260
-261 256
-261 -259
-256 259 261
-262 -256
-262 259
256 -259 262
-263 -261
-263 -262
261 262 263
-264 -256
-264 -259
256 259 264
-265 -260
-265 -264
260 264 265
-266 -42
-266 43
42 -43 266
-267 42
-267 -43
-42 43 267
-268 -266
-268 -267
266 267 268
-269 42
-269 43
-42 -43 269
-270 265
-270 -268
-265 268 270
-271 -265
-271 268
265 -268 271
-272 -270
-272 -271
270 271 272
-273 -265
-273 -268
265 268 273
-274 -269
-274 -273
269 273 274
-275 -43
-275 44
43 -44 275
-276 43
-276 -44
-43 44 276
-277 -275
-277 -276
275 276 277
-278 43
-278 44
-43 -44 278
-279 274
-279 -277
-274 277 279
-280 -274
-280 277
274 -277 280
-281 -279
-281 -280
279 280 281
-282 -274
-282 -277
274 277 282
-283 -278
-283 -282
278 282 283
-284 -44
-284 45
44 -45 284
-285 44
-285 -45
-44 45 285
-286 -284
-286 -285
284 285 286
-287 44
-287 45
-44 -45 287
-288 283
-288 -286
-283 286 288
-289 -283
-289 286
283 -286 289
-290 -288
-290 -289
288 289 290
-291 -283
-291 -286
283 286 291
-292 -287
-292 -291
287 291 292
-293 -45
-293 46
45 -46 293
-294 45
-294 -46
-45 46 294
-295 -293
-295 -294
293 294 295
-296 45
-296 46
-45 -46 296
-297 292
-297 -295
-292 295 297
-298 -292
-298 295
292 -295 298
-299 -297
-299 -298
297 298 299
-300 -292
-300 -295
292 295 300
-301 -296
-301 -300
296 300 301
-302 -46
-302 47
46 -47 302
-303 46
-303 -47
-46 47 303
-304 -302
-304 -303
302 303 304
-305 46
-305 47
-46 -47 305
-306 301
-306 -304
-301 304 306
-307 -301
-307 304
301 -304 307
-308 -306
-308 -307
306 307 308
-309 -301
-309 -304
301 304 309
-310 -305
-310 -309
305 309 310
-311 -47
-311 48
47 -48 311
-312 47
-312 -48
-47 48 312
-313 -311
-313 -312
311 312 313
-314 47
-314 48
-47 -48 314
-315 310
-315 -313
-310 313 315
-316 -310
-316 313
310 -313 316
-317 -315
-317 -316
315 316 317
-318 -310
-318 -313
310 313 318
-319 -314
-319 -318
314 318 319
-320 -48
-320 49
48 -49 320
-321 48
-321 -49
-48 49 321
-322 -320
-322 -321
320 321 322
-323 48
-323 49
-48 -49 323
-324 319
-324 -322
-319 322 324
-325 -319
-325 322
319 -322 325
-326 -324
-326 -325
324 325 326
-327 -319
-327 -322
319 322 327
-328 -323
-328 -327
323 327 328
-329 -49
-329 50
49 -50 329
-330 49
-330 -50
-49 50 330
-331 -329
-331 -330
329 330 331
-332 49
-332 50
-49 -50 332
-333 328
-333 -331
-328 331 333
-334 -328
-334 331
328 -331 334
-335 -333
-335 -334
333 334 335
-336 -328
-336 -331
328 331 336
-337 -332
-337 -336
332 336 337
-338 -50
-338 51
50 -51 338
-339 50
-339 -51
-50 51 339
-340 -338
-340 -339
338 339 340
-341 50
-341 51
-50 -51 341
-342 337
-342 -340
-337 340 342
-343 -337
-343 340
337 -340 343
-344 -342
-344 -343
342 343 344
-345 -337
-345 -340
337 340 345
-346 -341
-346 -345
341 345 346
-347 -51
-347 52
51 -52 347
-348 51
-348 -52
-51 52 348
-349 -347
-349 -348
347 348 349
-350 51
-350 52
-51 -52 350
-351 346
-351 -349
-346 349 351
-352 -346
-352 349
346 -349 352
-353 -351
-353 -352
351 352 353
-354 -346
-354 -349
346 349 354
-355 -350
-355 -354
350 354 355
-356 -52
-356 53
52 -53 356
-357 52
-357 -53
-52 53 357
-358 -356
-358 -357
356 357 358
-359 52
-359 53
-52 -53 359
-360 355
-360 -358
-355 358 360
-361 -355
-361 358
355 -358 361
-362 -360
-362 -361
360 361 362
-363 -355
-363 -358
355 358 363
-364 -359
-364 -363
359 363 364
-365 -53
-365 54
53 -54 365
-366 53
-366 -54
-53 54 366
-367 -365
-367 -366
365 366 367
-368 53
-368 54
-53 -54 368
-369 364
-369 -367
-364 367 369
-370 -364
-370 367
364 -367 370
-371 -369
-371 -370
369 370 371
-372 -364
-372 -367
364 367 372
-373 -368
-373 -372
368 372 373
-374 -54
-374 55
54 -55 374
-375 54
-375 -55
-54 55 375
-376 -374
-376 -375
374 375 376
-377 54
-377 55
-54 -55 377
-378 373
-378 -376
-373 376 378
-379 -373
-379 376
373 -376 379
-380 -378
-380 -379
378 379 380
-381 -373
-381 -376
373 376 381
-382 -377
-382 -381
377 381 382
-383 -55
-383 56
55 -56 383
-384 55
-384 -56
-55 56 384
-385 -383
-385 -384
383 384 385
-386 55
-386 56
-55 -56 386
-387 382
-387 -385
-382 385 387
-388 -382
-388 385
382 -385 388
-389 -387
-389 -388
387 388 389
-390 -382
-390 -385
382 385 390
-391 -386
-391 -390
386 390 391
-392 -56
-392 57
56 -57 392
-393 56
-393 -57
-56 57 393
-394 -392
-394 -393
392 393 394
-395 56
-395 57
-56 -57 395
-396 391
-396 -394
-391 394 396
-397 -391
-397 394
391 -394 397
-398 -396
-398 -397
396 397 398
-399 -391
-399 -394
391 394 399
-400 -395
-400 -399
395 399 400
-401 -57
-401 58
57 -58 401
-402 57
-402 -58
-57 58 402
-403 -401
-403 -402
401 402 403
-404 57
-404 58
-57 -58 404
-405 400
-405 -403
-400 403 405
-406 -400
-406 403
400 -403 406
-407 -405
-407 -406
405 406 407
-408 -400
-408 -403
400 403 408
-409 -404
-409 -408
404 408 409
-410 -58
-410 59
58 -59 410
-411 58
-411 -59
-58 59 411
-412 -410
-412 -411
410 411 412
-413 58
-413 59
-58 -59 413
-414 409
-414 -412
-409 412 414
-415 -409
-415 412
409 -412 415
-416 -414
-416 -415
414 415 416
-417 -409
-417 -412
409 412 417
-418 -413
-418 -417
413 417 418
-419 -59
-419 60
59 -60 419
-420 59
-420 -60
-59 60 420
-421 -419
-421 -420
419 420 421
-422 59
-422 60
-59 -60 422
-423 418
-423 -421
-418 421 423
-424 -418
-424 421
418 -421 424
-425 -423
-425 -424
423 424 425
-426 -418
-426 -421
418 421 426
-427 -422
-427 -426
422 426 427
-428 -60
-428 61
60 -61 428
-429 60
-429 -61
-60 61 429
-430 -428
-430 -429
428 429 430
-431 60
-431 61
-60 -61 431
-432 427
-432 -430
-427 430 432
-433 -427
-433 430
427 -430 433
-434 -432
-434 -433
432 433 434
-435 -427
-435 -430
427 430 435
-436 -431
-436 -435
431 435 436
-437 -61
-437 62
61 -62 437
-438 61
-438 -62
-61 62 438
-439 -437
-439 -438
437 438 439
-440 61
-440 62
-61 -62 440
-441 436
-441 -439
-436 439 441
-442 -436
-442 439
436 -439 442
-443 -441
-443 -442
441 442 443
-444 -436
-444 -439
436 439 444
-445 -440
-445 -444
440 444 445
-446 -62
-446 63
62 -63 446
-447 62
-447 -63
-62 63 447
-448 -446
-448 -447
446 447 448
-449 62
-449 63
-62 -63 449
-450 445
-450 -448
-445 448 450
-451 -445
-451 448
445 -448 451
-452 -450
-452 -451
450 451 452
-453 -445
-453 -448
445 448 453
-454 -449
-454 -453
449 453 454
-455 -63
-455 64
63 -64 455
-456 63
-456 -64
-63 64 456
-457 -455
-457 -456
455 456 457
-458 63
-458 64
-63 -64 458
-459 454
-459 -457
-454 457 459
-460 -454
-460 457
454 -457 460
-461 -459
-461 -460
459 460 461
-462 -454
-462 -457
454 457 462
-463 -458
-463 -462
458 462 463
-464 24
-464 -110
-24 110 464
-465 -24
-465 26
24 -26 465
-466 -464
-466 -465
464 465 466
-467 24
-467 -119
-24 119 467
-468 -24
-468 27
24 -27 468
-469 -467
-469 -468
467 468 469
-470 24
-470 -128
-24 128 470
-471 -24
-471 28
24 -28 471
-472 -470
-472 -471
470 471 472
-473 24
-473 -137
-24 137 473
-474 -24
-474 29
24 -29 474
-475 -473
-475 -474
473 474 475
-476 24
-476 -146
-24 146 476
-477 -24
-477 30
24 -30 477
-478 -476
-478 -477
476 477 478
-479 24
-479 -155
-24 155 479
-480 -24
-480 31
24 -31 480
-481 -479
-481 -480
479 480 481
-482 24
-482 -164
-24 164 482
-483 -24
-483 32
24 -32 483
-484 -482
-484 -483
482 483 484
-485 24
-485 -173
-24 173 485
-486 -24
-486 33
24 -33 486
-487 -485
-487 -486
485 486 487
-488 24
-488 -182
-24 182 488
-489 -24
-489 34
24 -34 489
-490 -488
-490 -489
488 489 490
-491 24
-491 -191
-24 191 491
-492 -24
-492 35
24 -35 492
-493 -491
-493 -492
491 492 493
-494 24
-494 -200
-24 200 494
-495 -24
-495 36
24 -36 495
-496 -494
-496 -495
494 495 496
-497 24
-497 -209
-24 209 497
-498 -24
-498 37
24 -37 498
-499 -497
-499 -498
497 498 499
-500 24
-500 -218
-24 218 500
-501 -24
-501 38
24 -38 501
-502 -500
-502 -501
500 501 502
-503 24
-503 -227
-24 227 503
-504 -24
-504 39
24 -39 504
-505 -503
-505 -504
503 504 505
-506 24
-506 -236
-24 236 506
-507 -24
-507 40
24 -40 507
-508 -506
-508 -507
506 507 508
-509 24
-509 -245
-24 245 509
-510 -24
-510 41
24 -41 510
-511 -509
-511 -510
509 510 511
-512 24
-512 -254
-24 254 512
-513 -24
-513 42
24 -42 513
-514 -512
-514 -513
512 513 514
-515 24
-515 -263
-24 263 515
-516 -24
-516 43
24 -43 516
-517 -515
-517 -516
515 516 517
-518 24
-518 -272
-24 272 518
-519 -24
-519 44
24 -44 519
-520 -518
-520 -519
518 519 520
-521 24
-521 -281
-24 281 521
-522 -24
-522 45
24 -45 522
-523 -521
-523 -522
521 522 523
-524 24
-524 -290
-24 290 524
-525 -24
-525 46
24 -46 525
-526 -524
-526 -525
524 525 526
-527 24
-527 -299
-24 299 527
-528 -24
-528 47
24 -47 528
-529 -527
-529 -528
527 528 529
-530 24
-530 -308
-24 308 530
-531 -24
-531 48
24 -48 531
-532 -530
-532 -531
530 531 532
-533 24
-533 -317
-24 317 533
-534 -24
-534 49
24 -49 534
-535 -533
-535 -534
533 534 535
-536 24
-536 -326
-24 326 536
-537 -24
-537 50
24 -50 537
-538 -536
-538 -537
536 537 538
-539 24
-539 -335
-24 335 539
-540 -24
-540 51
24 -51 540
-541 -539
-541 -540
539 540 541
-542 24
-542 -344
-24 344 542
-543 -24
-543 52
24 -52 543
-544 -542
-544 -543
542 543 544
-545 24
-545 -353
-24 353 545
-546 -24
-546 53
24 -53 546
-547 -545
-547 -546
545 546 547
-548 24
-548 -362
-24 362 548
-549 -24
-549 54
24 -54 549
-550 -548
-550 -549
548 549 550
-551 24
-551 -371
-24 371 551
-552 -24
-552 55
24 -55 552
-553 -551
-553 -552
551 552 553
-554 24
-554 -380
-24 380 554
-555 -24
-555 56
24 -56 555
-556 -554
-556 -555
554 555 556
-557 24
-557 -389
-24 389 557
-558 -24
-558 57
24 -57 558
-559 -557
-559 -558
557 558 559
-560 24
-560 -398
-24 398 560
-561 -24
-561 58
24 -58 561
-562 -560
-562 -561
560 561 562
-563 24
-563 -407
-24 407 563
-564 -24
-564 59
24 -59 564
-565 -563
-565 -564
563 564 565
-566 24
-566 -416
-24 416 566
-567 -24
-567 60
24 -60 567
-568 -566
-568 -567
566 567 568
-569 24
-569 -425
-24 425 569
-570 -24
-570 61
24 -61 570
-571 -569
-571 -570
569 570 571
-572 24
-572 -434
-24 434 572
-573 -24
-573 62
24 -62 573
-574 -572
-574 -573
572 573 574
-575 24
-575 -443
-24 443 575
-576 -24
-576 63
24 -63 576
-577 -575
-577 -576
575 576 577
-578 24
-578 -452
-24 452 578
-579 -24
-579 64
24 -64 579
-580 -578
-580 -579
578 579 580
-581 24
-581 -461
-24 461 581
-582 1
-582 103
-1 -103 582
-583 -103
-583 104
103 -104 583
-584 -582
-584 -583
582 583 584
-585 2
-585 103
-2 -103 585
-586 -103
-586 -466
103 466 586
-587 -585
-587 -586
585 586 587
-588 3
-588 103
-3 -103 588
-589 -103
-589 -469
103 469 589
-590 -588
-590 -589
588 589 590
-591 4
-591 103
-4 -103 591
-592 -103
-592 -472
103 472 592
-593 -591
-593 -592
591 592 593
-594 5
-594 103
-5 -103 594
-595 -103
-595 -475
103 475 595
-596 -594
-596 -595
594 595 596
-597 6
-597 103
-6 -103 597
-598 -103
-598 -478
103 478 598
-599 -597
-599 -598
597 598 599
-600 7
-600 103
-7 -103 600
-601 -103
-601 -481
103 481 601
-602 -600
-602 -601
600 601 602
-603 8
-603 103
-8 -103 603
-604 -103
-604 -484
103 484 604
-605 -603
-605 -604
603 604 605
-606 9
-606 103
-9 -103 606
-607 -103
-607 -487
103 487 607
-608 -606
-608 -607
606 607 608
-609 10
-609 103
-10 -103 609
-610 -103
-610 -490
103 490 610
-611 -609
-611 -610
609 610 611
-612 11
-612 103
-11 -103 612
-613 -103
-613 -493
103 493 613
-614 -612
-614 -613
612 613 614
-615 12
-615 103
-12 -103 615
-616 -103
-616 -496
103 496 616
-617 -615
-617 -616
615 616 617
-618 13
-618 103
-13 -103 618
-619 -103
-619 -499
103 499 619
-620 -618
-620 -619
618 619 620
-621 14
-621 103
-14 -103 621
-622 -103
-622 -502
103 502 622
-623 -621
-623 -622
621 622 623
-624 15
-624 103
-15 -103 624
-625 -103
-625 -505
103 505 625
-626 -624
-626 -625
624 625 626
-627 16
-627 103
-16 -103 627
-628 -103
-628 -508
103 508 628
-629 -627
-629 -628
627 628 629
-630 17
-630 103
-17 -103 630
-631 -103
-631 -511
103 511 631
-632 -630
-632 -631
630 631 632
-633 18
-633 103
-18 -103 633
-634 -103
-634 -514
103 514 634
-635 -633
-635 -634
633 634 635
-636 19
-636 103
-19 -103 636
-637 -103
-637 -517
103 517 637
-638 -636
-638 -637
636 637 638
-639 20
-639 103
-20 -103 639
-640 -103
-640 -520
103 520 640
-641 -639
-641 -640
639 640 641
-642 21
-642 103
-21 -103 642
-643 -103
-643 -523
103 523 643
-644 -642
-644 -643
642 643 644
-645 22
-645 103
-22 -103 645
-646 -103
-646 -526
103 526 646
-647 -645
-647 -646
645 646 647
-648 23
-648 103
-23 -103 648
-649 -103
-649 -529
103 529 649
-650 -648
-650 -649
648 649 650
-651 -103
-651 -532
103 532 651
-652 -103
-652 -535
103 535 652
-653 -103
-653 -538
103 538 653
-654 -103
-654 -541
103 541 654
-655 -103
-655 -544
103 544 655
-656 -103
-656 -547
103 547 656
-657 -103
-657 -550
103 550 657
-658 -103
-658 -553
103 553 658
-659 -103
-659 -556
103 556 659
-660 -103
-660 -559
103 559 660
-661 -103
-661 -562
103 562 661
-662 -103
-662 -565
103 565 662
-663 -103
-663 -568
103 568 663
-664 -103
-664 -571
103 571 664
-665 -103
-665 -574
103 574 665
-666 -103
-666 -577
103 577 666
-667 -103
-667 -580
103 580 667
-668 -103
-668 581
103 -581 668
-669 -64
-669 463
64 -463 669
-670 24
-670 -669
-24 669 670
670
